p tw 41 45
1 2
2 13
3 4
4 5
5 6
6 7
7 8
8 9
9 10
10 11
11 12
12 14
13 24
14 15
15 16
16 17
17 18
18 19
18 31
19 20
20 21
21 22
22 23
22 25
23 34
24 35
25 26
26 27
27 28
27 17
28 29
29 30
30 17
31 32
32 33
33 34
34 36
35 37
37 38
38 39
38 3
39 40
40 41
40 21
41 31
